--- Job hw2-2.gms Start 09/29/23 17:11:07 44.3.0 8b8fb1cb WEX-WEI x86 64bit/MS Windows
--- Applying:
    D:\GAMS\44\gmsprmNT.txt
--- GAMS Parameters defined
    Input "D:\uw madison\524\hw2\hw2-2\hw2-2.gms"
    PageSize 0
    ScrDir "D:\uw madison\524\hw2\hw2-2\225a\"
    SysDir D:\GAMS\44\
    LogOption 3
    ErrMsg 1
    ErrorLog 99
    IDE 1
    LstTitleLeftAligned 1
Licensee: Introduction to Optimization (CS/ISyE/ECE 524) G230906|0002AS-GEN
          UW-Madison, CS Dept., Fall 2023, Prof. Ferris              DCE850
          C:\Users\lanya\Documents\GAMS\gamslice.txt
          License Admin: Michael C. Ferris, ferris@cs.wisc.edu             
          Course license for use within the course and related course work
Processor information: 1 socket(s), 8 core(s), and 16 thread(s) available
GAMS 44.3.0   Copyright (C) 1987-2023 GAMS Development. All rights reserved
--- Starting compilation
--- hw2-2.gms(4) 2 Mb
--- . 2.2.3.inc(12) 3 Mb
--- hw2-2.gms(35) 3 Mb
--- Starting execution: elapsed 0:00:00.005
--- Generating LP model books
--- hw2-2.gms(37) 4 Mb
---   4 rows  6 columns  21 non-zeroes
--- Range statistics (absolute non-zero finite values)
--- RHS       [min, max] : [ 1.250E+02, 4.200E+02] - Zero values observed as well
--- Bound     [min, max] : [        NA,        NA] - Zero values observed as well
--- Matrix    [min, max] : [ 1.000E+00, 1.900E+01]
--- Executing CPLEX (Solvelink=2): elapsed 0:00:00.007

IBM ILOG CPLEX   44.3.0 8b8fb1cb Sep 1, 2023           WEI x86 64bit/MS Window

--- GAMS/CPLEX licensed for continuous and discrete problems.
--- GMO setup time: 0.00s
--- GMO memory 0.50 Mb (peak 0.50 Mb)
--- Dictionary memory 0.00 Mb
--- Cplex 22.1.1.0 link memory 0.00 Mb (peak 0.00 Mb)
--- Starting Cplex

Version identifier: 22.1.1.0 | 2022-11-27 | 9160aff4d
CPXPARAM_Advance                                 0
CPXPARAM_Simplex_Display                         2
CPXPARAM_Threads                                 1
CPXPARAM_MIP_Display                             4
CPXPARAM_MIP_Pool_Capacity                       0
CPXPARAM_MIP_Tolerances_AbsMIPGap                0
Tried aggregator 1 time.
LP Presolve eliminated 0 rows and 1 columns.
Reduced LP has 3 rows, 5 columns, and 15 nonzeros.
Presolve time = 0.00 sec. (0.00 ticks)

Iteration      Dual Objective            In Variable           Out Variable
     1  I            0.000000   produce(coffeetable)resource_con(wood slack
     2            1968.000000          produce(desk)resource_con(work slack
     3            1935.000000         produce(chair)   produce(coffeetable)
     4            1890.000000      produce(bedframe)resource_con(meta slack

--- LP status (1): optimal.
--- Cplex Time: 0.00sec (det. 0.01 ticks)


Optimal solution found
Objective:         1890.000000

--- Reading solution for model books
--- Executing after solve: elapsed 0:00:00.058
--- hw2-2.gms(47) 4 Mb
*** Status: Normal completion
--- Job hw2-2.gms Stop 09/29/23 17:11:07 elapsed 0:00:00.058
